
n_res = 6;
rcap = [84, 91, 80, 106, 865, 841];
rtype = [1, 1, 1, 1, 2, 2];
n_tasks = 50;
modes =  [{1, 2, 3, 4, 5, 6, 7, 8, 9}, {10, 11, 12, 13, 14, 15, 16, 17, 18}, {19, 20, 21, 22, 23, 24, 25, 26, 27}, {28, 29, 30, 31, 32, 33, 34, 35, 36}, {37, 38, 39, 40, 41, 42, 43, 44, 45}, {46, 47, 48, 49, 50, 51, 52, 53, 54}, {55, 56, 57, 58, 59, 60, 61, 62, 63}, {64, 65, 66, 67, 68, 69, 70, 71, 72}, {73, 74, 75, 76, 77, 78, 79, 80, 81}, {82, 83, 84, 85, 86, 87, 88, 89, 90}, {91, 92, 93, 94, 95, 96, 97, 98, 99}, {100, 101, 102, 103, 104, 105, 106, 107, 108}, {109, 110, 111, 112, 113, 114, 115, 116, 117}, {118, 119, 120, 121, 122, 123, 124, 125, 126}, {127, 128, 129, 130, 131, 132, 133, 134, 135}, {136, 137, 138, 139, 140, 141, 142, 143, 144}, {145, 146, 147, 148, 149, 150, 151, 152, 153}, {154, 155, 156, 157, 158, 159, 160, 161, 162}, {163, 164, 165, 166, 167, 168, 169, 170, 171}, {172, 173, 174, 175, 176, 177, 178, 179, 180}, {181, 182, 183, 184, 185, 186, 187, 188, 189}, {190, 191, 192, 193, 194, 195, 196, 197, 198}, {199, 200, 201, 202, 203, 204, 205, 206, 207}, {208, 209, 210, 211, 212, 213, 214, 215, 216}, {217, 218, 219, 220, 221, 222, 223, 224, 225}, {226, 227, 228, 229, 230, 231, 232, 233, 234}, {235, 236, 237, 238, 239, 240, 241, 242, 243}, {244, 245, 246, 247, 248, 249, 250, 251, 252}, {253, 254, 255, 256, 257, 258, 259, 260, 261}, {262, 263, 264, 265, 266, 267, 268, 269, 270}, {271, 272, 273, 274, 275, 276, 277, 278, 279}, {280, 281, 282, 283, 284, 285, 286, 287, 288}, {289, 290, 291, 292, 293, 294, 295, 296, 297}, {298, 299, 300, 301, 302, 303, 304, 305, 306}, {307, 308, 309, 310, 311, 312, 313, 314, 315}, {316, 317, 318, 319, 320, 321, 322, 323, 324}, {325, 326, 327, 328, 329, 330, 331, 332, 333}, {334, 335, 336, 337, 338, 339, 340, 341, 342}, {343, 344, 345, 346, 347, 348, 349, 350, 351}, {352, 353, 354, 355, 356, 357, 358, 359, 360}, {361, 362, 363, 364, 365, 366, 367, 368, 369}, {370, 371, 372, 373, 374, 375, 376, 377, 378}, {379, 380, 381, 382, 383, 384, 385, 386, 387}, {388, 389, 390, 391, 392, 393, 394, 395, 396}, {397, 398, 399, 400, 401, 402, 403, 404, 405}, {406, 407, 408, 409, 410, 411, 412, 413, 414}, {415, 416, 417, 418, 419, 420, 421, 422, 423}, {424, 425, 426, 427, 428, 429, 430, 431, 432}, {433, 434, 435, 436, 437, 438, 439, 440, 441}, {442, 443, 444, 445, 446, 447, 448, 449, 450}];
succ =  [{13, 11, 7, 6}, {15, 14, 13, 11, 10}, {13, 11, 10, 8}, {25, 15, 14, 11}, {10, 7}, {20, 14, 10}, {25, 20, 17, 16, 15}, {20, 18, 17, 16, 15}, {25, 20, 18, 17, 16}, {25, 18, 17, 16}, {20, 18, 17, 16}, {25, 17, 14}, {25, 23, 22, 21, 20, 18}, {23, 22, 21, 18}, {26, 23, 21, 19}, {31, 29, 26, 23, 21}, {24, 22, 19}, {26, 24, 19}, {40, 35, 33, 31, 30, 29, 28, 27}, {40, 35, 31, 30, 28, 26}, {40, 33, 30, 27, 24}, {40, 35, 28, 26}, {45, 37, 35, 30, 28}, {45, 37, 35, 28}, {35, 26}, {37, 27}, {45, 41, 32}, {36, 32}, {50, 45, 36, 34}, {32}, {45, 44, 38, 37}, {50, 39, 34}, {39, 34}, {44, 42, 38}, {44, 42, 38}, {49, 44, 42, 41}, {50, 49, 46, 42}, {49, 48, 43}, {49, 46, 42}, {49, 44, 43}, {48, 47, 46}, {48, 47}, {47, 46}, {46}, {48}, {}, {}, {}, {}, {}];
n_opt = 450;
dur = [2, 3, 4, 6, 8, 14, 17, 18, 26, 2, 5, 8, 9, 10, 11, 16, 25, 27, 4, 9, 10, 11, 13, 20, 23, 26, 27, 1, 2, 5, 6, 8, 11, 14, 20, 21, 2, 3, 5, 8, 12, 13, 14, 19, 28, 2, 6, 14, 15, 19, 20, 21, 22, 25, 2, 4, 9, 11, 13, 17, 25, 26, 28, 4, 5, 9, 17, 23, 24, 27, 29, 30, 3, 9, 12, 16, 20, 21, 26, 29, 30, 6, 7, 8, 13, 18, 19, 20, 25, 26, 1, 3, 5, 7, 11, 15, 17, 20, 24, 4, 10, 11, 12, 13, 18, 19, 22, 23, 5, 11, 13, 16, 19, 22, 26, 28, 29, 3, 7, 8, 10, 13, 15, 27, 28, 29, 2, 11, 13, 15, 19, 20, 21, 22, 26, 1, 2, 4, 7, 10, 12, 20, 28, 30, 5, 7, 8, 11, 15, 21, 25, 26, 27, 3, 4, 7, 8, 13, 14, 17, 20, 26, 4, 8, 9, 11, 16, 17, 22, 26, 28, 3, 6, 14, 16, 19, 22, 23, 27, 30, 12, 13, 17, 18, 20, 22, 23, 24, 25, 4, 5, 6, 10, 15, 18, 25, 27, 28, 4, 6, 9, 10, 15, 21, 22, 23, 29, 4, 5, 12, 13, 15, 17, 18, 25, 27, 1, 3, 9, 14, 16, 17, 19, 21, 22, 6, 10, 21, 22, 23, 24, 25, 26, 28, 3, 4, 17, 20, 21, 23, 24, 29, 30, 5, 6, 18, 20, 22, 23, 24, 25, 30, 3, 5, 9, 11, 12, 14, 21, 23, 30, 2, 4, 10, 15, 19, 21, 24, 25, 30, 3, 8, 9, 12, 19, 23, 24, 26, 28, 5, 10, 11, 12, 13, 16, 18, 26, 29, 3, 6, 7, 12, 13, 14, 22, 27, 30, 4, 5, 12, 13, 15, 16, 18, 22, 24, 2, 3, 4, 5, 6, 8, 12, 16, 21, 5, 6, 10, 12, 17, 18, 19, 23, 29, 7, 12, 13, 15, 16, 17, 18, 21, 28, 4, 5, 6, 11, 13, 21, 25, 26, 28, 11, 12, 13, 17, 18, 25, 28, 29, 30, 5, 6, 8, 13, 14, 15, 17, 28, 30, 3, 9, 14, 18, 19, 20, 23, 25, 29, 2, 6, 10, 14, 15, 17, 22, 25, 30, 2, 3, 4, 5, 7, 10, 11, 25, 27, 3, 4, 5, 17, 18, 21, 23, 27, 29, 9, 11, 13, 15, 16, 26, 27, 29, 30, 5, 8, 10, 11, 14, 18, 19, 22, 28, 4, 5, 7, 8, 10, 12, 13, 14, 18, 2, 10, 14, 18, 19, 21, 25, 26, 28, 1, 3, 7, 10, 14, 18, 19, 20, 24, 2, 4, 9, 11, 15, 17, 19, 23, 26];
rreq = [|19, 19, 19, 19, 18, 18, 17, 17, 17, 27, 26, 25, 22, 22, 20, 20, 17, 16, 11, 11, 10, 9, 9, 9, 8, 7, 7, 28, 25, 24, 22, 20, 17, 15, 13, 11, 23, 22, 22, 22, 20, 20, 20, 19, 18, 24, 21, 20, 18, 16, 16, 14, 13, 12, 5, 4, 4, 4, 3, 3, 2, 2, 2, 16, 15, 14, 13, 12, 12, 12, 11, 10, 15, 15, 15, 15, 14, 14, 14, 14, 14, 27, 25, 25, 25, 23, 23, 22, 22, 21, 22, 21, 20, 20, 19, 17, 16, 15, 13, 16, 15, 15, 14, 14, 14, 13, 12, 12, 29, 26, 26, 24, 23, 21, 21, 19, 19, 8, 7, 6, 5, 5, 4, 3, 2, 2, 18, 17, 15, 14, 14, 14, 12, 11, 11, 20, 20, 19, 19, 19, 18, 18, 17, 17, 18, 17, 16, 15, 15, 14, 14, 13, 12, 4, 3, 3, 3, 3, 2, 2, 2, 2, 10, 10, 9, 7, 7, 5, 5, 3, 2, 14, 12, 11, 9, 7, 7, 6, 3, 2, 8, 8, 8, 8, 8, 8, 8, 8, 8, 16, 14, 14, 12, 12, 11, 10, 10, 9, 23, 22, 21, 20, 20, 19, 17, 16, 16, 19, 17, 15, 14, 14, 12, 11, 10, 8, 28, 26, 26, 26, 25, 25, 24, 24, 23, 14, 13, 13, 13, 13, 12, 12, 12, 12, 27, 25, 25, 22, 21, 21, 18, 17, 16, 23, 21, 21, 20, 18, 17, 16, 16, 14, 16, 16, 16, 16, 15, 15, 14, 14, 14, 25, 22, 20, 18, 17, 12, 10, 10, 6, 19, 19, 18, 16, 16, 16, 14, 13, 13, 27, 23, 21, 19, 17, 16, 13, 13, 11, 14, 14, 13, 13, 13, 12, 11, 11, 11, 12, 11, 10, 10, 8, 7, 6, 5, 5, 26, 25, 25, 23, 23, 22, 21, 19, 19, 24, 23, 22, 22, 20, 20, 19, 19, 18, 18, 18, 17, 17, 16, 15, 14, 14, 13, 20, 19, 18, 18, 18, 17, 17, 16, 16, 20, 18, 18, 16, 15, 14, 14, 13, 11, 11, 11, 9, 8, 7, 6, 5, 5, 4, 7, 6, 5, 4, 4, 3, 3, 3, 2, 25, 25, 25, 25, 24, 24, 24, 23, 23, 23, 20, 18, 14, 14, 10, 7, 5, 1, 27, 25, 20, 19, 17, 13, 10, 5, 4, 13, 12, 12, 12, 12, 11, 11, 11, 11, 29, 29, 27, 27, 26, 25, 24, 22, 22, 22, 19, 17, 14, 14, 10, 8, 5, 2, 7, 6, 6, 6, 6, 6, 6, 6, 6, 21, 20, 20, 19, 18, 18, 18, 17, 17, 6, 5, 4, 3, 3, 2, 2, 1, 1
 |21, 19, 17, 17, 13, 12, 10, 7, 6, 26, 25, 24, 23, 21, 20, 18, 16, 15, 25, 25, 22, 19, 17, 17, 13, 12, 9, 26, 25, 24, 24, 23, 22, 22, 21, 20, 17, 16, 16, 16, 15, 15, 15, 14, 14, 16, 15, 14, 13, 12, 12, 11, 9, 9, 29, 25, 24, 22, 20, 19, 17, 14, 11, 19, 18, 17, 15, 15, 13, 12, 12, 11, 27, 23, 21, 17, 17, 13, 9, 9, 7, 6, 4, 4, 3, 3, 2, 2, 1, 1, 17, 16, 15, 15, 14, 14, 13, 13, 13, 11, 10, 10, 8, 8, 6, 6, 4, 4, 13, 13, 13, 13, 13, 13, 13, 13, 13, 19, 18, 18, 17, 17, 17, 16, 16, 16, 23, 21, 21, 21, 20, 19, 19, 19, 18, 28, 27, 26, 26, 26, 25, 24, 24, 24, 25, 23, 23, 22, 18, 17, 15, 13, 13, 12, 12, 12, 11, 11, 10, 9, 9, 9, 20, 19, 17, 17, 15, 14, 11, 10, 9, 21, 19, 19, 17, 17, 17, 16, 14, 14, 8, 8, 8, 8, 8, 7, 7, 7, 7, 21, 21, 21, 20, 20, 19, 18, 18, 18, 11, 11, 9, 9, 7, 6, 5, 4, 4, 27, 27, 27, 27, 26, 26, 26, 26, 26, 17, 16, 15, 13, 11, 10, 8, 7, 6, 23, 22, 22, 22, 21, 21, 21, 20, 20, 26, 26, 25, 23, 23, 21, 21, 20, 19, 21, 19, 18, 16, 14, 14, 13, 10, 9, 17, 14, 14, 13, 12, 10, 10, 8, 8, 29, 28, 26, 24, 22, 21, 21, 18, 17, 21, 21, 21, 20, 20, 20, 20, 19, 19, 23, 23, 22, 22, 20, 20, 20, 18, 18, 22, 20, 18, 17, 14, 12, 10, 7, 6, 25, 24, 22, 19, 19, 16, 13, 13, 9, 23, 20, 19, 18, 18, 15, 14, 13, 12, 9, 8, 7, 7, 7, 6, 6, 5, 5, 27, 25, 25, 24, 23, 21, 20, 20, 19, 22, 19, 17, 16, 12, 12, 9, 7, 5, 16, 15, 15, 15, 14, 13, 13, 11, 11, 17, 16, 14, 11, 10, 8, 7, 6, 5, 20, 20, 18, 17, 15, 15, 13, 11, 11, 13, 12, 10, 10, 9, 9, 7, 7, 6, 21, 19, 18, 16, 13, 10, 10, 6, 6, 17, 16, 13, 13, 10, 10, 8, 7, 6, 30, 29, 27, 26, 26, 26, 24, 23, 23, 27, 22, 19, 18, 16, 11, 11, 5, 3, 27, 23, 20, 19, 17, 15, 12, 12, 9, 24, 23, 23, 23, 22, 22, 22, 21, 21, 12, 12, 10, 9, 9, 8, 7, 6, 6, 7, 6, 5, 5, 4, 3, 3, 1, 1
 |21, 16, 14, 14, 9, 7, 7, 4, 2, 23, 21, 20, 19, 19, 17, 17, 15, 15, 11, 9, 9, 8, 7, 4, 4, 3, 2, 10, 10, 10, 10, 10, 10, 10, 10, 10, 19, 19, 18, 16, 16, 14, 14, 13, 12, 29, 28, 28, 28, 26, 26, 25, 25, 24, 28, 26, 24, 21, 20, 19, 17, 17, 14, 19, 16, 14, 13, 12, 11, 9, 8, 6, 22, 22, 21, 20, 20, 19, 19, 18, 18, 20, 15, 15, 13, 10, 9, 7, 4, 1, 18, 18, 17, 17, 16, 16, 15, 14, 14, 25, 25, 22, 18, 17, 15, 14, 11, 9, 11, 10, 9, 8, 6, 5, 4, 4, 3, 8, 8, 8, 8, 8, 8, 8, 8, 8, 7, 7, 6, 5, 5, 4, 4, 3, 3, 18, 18, 17, 17, 16, 16, 16, 15, 15, 18, 17, 14, 14, 10, 8, 7, 4, 2, 29, 27, 27, 26, 26, 25, 25, 25, 24, 17, 17, 17, 17, 17, 16, 16, 16, 16, 20, 19, 17, 13, 11, 11, 7, 7, 5, 27, 25, 23, 20, 17, 12, 11, 9, 4, 8, 6, 6, 5, 4, 3, 2, 2, 1, 27, 22, 22, 18, 17, 13, 10, 7, 5, 30, 27, 24, 20, 17, 16, 13, 11, 9, 26, 26, 25, 24, 24, 23, 23, 22, 22, 5, 5, 4, 4, 3, 2, 2, 1, 1, 13, 13, 13, 13, 13, 13, 13, 13, 13, 24, 20, 20, 16, 16, 14, 11, 9, 8, 10, 9, 9, 8, 7, 7, 7, 6, 6, 16, 15, 13, 12, 11, 10, 8, 7, 7, 27, 25, 22, 20, 18, 17, 16, 13, 12, 26, 24, 24, 23, 23, 22, 22, 22, 21, 24, 22, 22, 21, 20, 20, 19, 18, 18, 25, 21, 20, 18, 14, 14, 11, 10, 7, 10, 10, 9, 7, 6, 4, 4, 3, 2, 28, 28, 28, 28, 28, 28, 28, 28, 28, 19, 17, 16, 15, 13, 12, 12, 11, 10, 15, 15, 15, 15, 14, 14, 14, 14, 14, 25, 25, 20, 18, 16, 12, 12, 7, 5, 21, 21, 19, 18, 17, 16, 16, 15, 13, 29, 27, 25, 23, 20, 19, 18, 16, 15, 10, 10, 10, 10, 10, 10, 10, 10, 10, 13, 11, 9, 7, 7, 5, 3, 2, 2, 19, 17, 16, 15, 15, 13, 13, 12, 11, 20, 19, 16, 15, 13, 12, 10, 8, 6, 10, 9, 9, 9, 8, 8, 8, 8, 8, 12, 10, 8, 7, 7, 5, 4, 4, 2, 14, 13, 12, 12, 12, 11, 11, 10, 10, 25, 24, 24, 24, 24, 24, 24, 24, 24, 10, 9, 9, 9, 8, 8, 8, 7, 7
 |29, 29, 29, 29, 28, 28, 28, 28, 28, 25, 22, 22, 20, 16, 14, 13, 10, 6, 23, 23, 20, 19, 18, 15, 13, 11, 10, 26, 26, 25, 24, 23, 21, 20, 20, 18, 29, 28, 25, 23, 22, 20, 18, 17, 14, 24, 23, 23, 21, 20, 20, 19, 18, 17, 13, 12, 11, 9, 8, 8, 6, 6, 4, 14, 13, 12, 11, 10, 10, 9, 7, 7, 23, 23, 23, 23, 23, 22, 22, 22, 22, 27, 27, 27, 27, 27, 27, 27, 27, 27, 19, 18, 17, 16, 16, 15, 15, 13, 13, 29, 27, 26, 23, 23, 22, 21, 19, 17, 21, 20, 20, 19, 19, 19, 18, 18, 18, 26, 26, 26, 26, 25, 25, 25, 24, 24, 26, 24, 24, 23, 22, 19, 19, 17, 16, 27, 27, 27, 27, 27, 26, 26, 26, 26, 7, 6, 5, 4, 4, 4, 3, 3, 2, 7, 6, 5, 5, 3, 3, 3, 1, 1, 14, 12, 11, 11, 9, 8, 6, 4, 3, 4, 4, 4, 4, 4, 4, 4, 4, 4, 26, 23, 22, 16, 13, 12, 10, 4, 4, 19, 19, 18, 18, 18, 17, 16, 16, 16, 25, 24, 19, 16, 14, 12, 7, 4, 2, 23, 19, 17, 14, 11, 10, 8, 5, 3, 24, 23, 22, 20, 20, 20, 19, 18, 17, 28, 26, 25, 24, 21, 20, 18, 17, 16, 20, 18, 18, 15, 13, 13, 11, 9, 6, 25, 25, 25, 25, 24, 24, 24, 24, 24, 16, 16, 15, 15, 14, 14, 14, 13, 13, 20, 20, 20, 20, 20, 20, 20, 20, 20, 16, 15, 15, 13, 13, 13, 11, 11, 10, 18, 18, 16, 15, 14, 13, 11, 10, 10, 26, 23, 19, 19, 17, 12, 12, 8, 8, 26, 26, 22, 20, 20, 17, 15, 14, 11, 17, 17, 16, 15, 14, 12, 11, 11, 10, 19, 18, 18, 17, 17, 16, 15, 15, 15, 28, 26, 25, 24, 24, 22, 21, 20, 20, 22, 21, 20, 18, 18, 17, 16, 15, 15, 14, 13, 13, 13, 12, 12, 12, 12, 12, 6, 4, 4, 4, 3, 2, 2, 2, 1, 14, 14, 14, 14, 13, 13, 12, 12, 12, 18, 17, 15, 14, 13, 12, 11, 11, 10, 18, 18, 18, 18, 18, 18, 18, 18, 18, 6, 6, 5, 4, 4, 3, 3, 3, 2, 24, 24, 24, 24, 23, 23, 23, 22, 22, 28, 25, 23, 20, 19, 15, 15, 11, 10, 8, 7, 5, 5, 4, 3, 2, 2, 1, 19, 18, 18, 17, 16, 16, 15, 14, 14, 4, 3, 3, 3, 3, 3, 3, 3, 3, 15, 13, 12, 10, 10, 8, 6, 3, 2
 |27, 27, 26, 25, 25, 25, 24, 23, 23, 19, 16, 16, 14, 11, 9, 8, 5, 5, 20, 19, 17, 14, 13, 10, 10, 6, 5, 23, 22, 22, 22, 22, 21, 21, 21, 21, 9, 8, 8, 8, 7, 6, 6, 6, 5, 18, 16, 15, 15, 14, 12, 11, 11, 10, 23, 21, 20, 20, 19, 17, 16, 15, 14, 15, 15, 15, 15, 15, 14, 14, 14, 14, 30, 29, 28, 26, 26, 26, 25, 23, 23, 26, 25, 24, 21, 19, 15, 14, 12, 11, 20, 17, 15, 12, 9, 7, 6, 5, 2, 14, 14, 12, 11, 8, 7, 5, 3, 2, 19, 18, 18, 17, 16, 15, 13, 12, 11, 14, 13, 11, 9, 8, 8, 7, 4, 3, 9, 8, 8, 8, 8, 7, 7, 7, 7, 12, 11, 9, 9, 6, 5, 3, 2, 1, 29, 27, 26, 22, 21, 20, 17, 15, 15, 22, 22, 19, 19, 17, 15, 12, 11, 9, 21, 21, 21, 21, 21, 21, 21, 21, 21, 9, 8, 7, 6, 6, 5, 4, 3, 3, 23, 22, 21, 21, 20, 20, 20, 19, 19, 29, 24, 23, 18, 16, 13, 11, 9, 7, 21, 19, 17, 17, 14, 12, 9, 9, 7, 8, 8, 8, 8, 8, 8, 8, 8, 8, 28, 27, 27, 27, 26, 26, 25, 25, 25, 11, 10, 10, 10, 9, 9, 8, 7, 7, 20, 16, 14, 12, 10, 8, 8, 5, 4, 30, 27, 22, 20, 18, 12, 10, 9, 4, 6, 5, 4, 3, 3, 3, 2, 2, 1, 14, 14, 14, 13, 13, 13, 13, 12, 12, 20, 17, 16, 14, 12, 9, 7, 4, 3, 13, 12, 12, 11, 10, 9, 8, 7, 5, 20, 19, 19, 18, 18, 18, 18, 17, 17, 3, 3, 3, 2, 2, 2, 2, 1, 1, 25, 23, 19, 16, 13, 12, 9, 6, 4, 19, 18, 17, 16, 16, 16, 15, 14, 14, 8, 7, 7, 6, 6, 6, 6, 5, 5, 23, 23, 21, 18, 14, 13, 11, 7, 7, 18, 17, 16, 15, 14, 14, 13, 11, 11, 25, 23, 22, 20, 19, 19, 17, 14, 14, 25, 23, 23, 21, 20, 20, 18, 17, 16, 21, 19, 19, 18, 16, 13, 13, 10, 9, 21, 18, 15, 14, 13, 9, 8, 7, 4, 13, 12, 12, 11, 10, 10, 9, 8, 7, 25, 25, 24, 24, 23, 23, 23, 22, 22, 28, 28, 28, 28, 28, 28, 28, 28, 28, 26, 26, 25, 23, 21, 20, 19, 19, 18, 27, 25, 25, 23, 22, 19, 17, 16, 15, 23, 22, 22, 21, 19, 18, 18, 16, 16, 27, 23, 23, 19, 17, 15, 13, 11, 9
 |27, 25, 25, 24, 22, 21, 20, 19, 19, 17, 16, 12, 10, 8, 6, 4, 2, 1, 24, 23, 23, 23, 22, 22, 21, 21, 21, 18, 16, 14, 12, 9, 7, 6, 5, 2, 26, 25, 24, 23, 21, 19, 18, 17, 16, 23, 22, 20, 19, 17, 16, 14, 13, 13, 26, 25, 24, 24, 24, 23, 22, 22, 22, 9, 8, 8, 7, 7, 6, 6, 4, 4, 18, 17, 17, 17, 17, 17, 17, 17, 17, 14, 14, 13, 11, 10, 9, 9, 8, 7, 18, 18, 17, 16, 16, 15, 15, 14, 14, 15, 11, 11, 8, 7, 5, 5, 3, 1, 24, 22, 22, 21, 20, 18, 18, 16, 15, 9, 9, 9, 9, 8, 8, 8, 8, 8, 25, 23, 22, 20, 20, 19, 17, 16, 15, 23, 22, 20, 19, 19, 18, 17, 16, 14, 16, 12, 11, 11, 9, 7, 5, 4, 2, 12, 11, 11, 11, 11, 10, 10, 10, 10, 22, 20, 20, 18, 18, 17, 17, 16, 15, 22, 20, 19, 17, 15, 14, 13, 11, 10, 21, 19, 18, 17, 15, 14, 14, 12, 11, 19, 17, 15, 14, 13, 11, 11, 8, 8, 20, 17, 15, 13, 13, 12, 10, 9, 7, 29, 28, 28, 28, 28, 28, 28, 28, 28, 28, 27, 27, 26, 25, 25, 25, 24, 23, 14, 14, 14, 14, 13, 13, 12, 12, 12, 15, 14, 14, 14, 13, 13, 13, 12, 12, 29, 29, 29, 28, 28, 28, 28, 27, 27, 29, 24, 23, 21, 17, 15, 13, 13, 9, 20, 19, 19, 19, 18, 18, 17, 17, 17, 22, 22, 22, 21, 21, 21, 20, 20, 20, 10, 9, 9, 8, 7, 5, 5, 4, 3, 25, 23, 20, 19, 16, 13, 11, 10, 5, 16, 15, 13, 10, 8, 6, 5, 4, 1, 11, 9, 9, 7, 7, 6, 5, 5, 4, 6, 5, 5, 5, 5, 5, 5, 5, 5, 25, 24, 22, 18, 15, 15, 12, 11, 9, 16, 16, 16, 16, 16, 16, 16, 16, 16, 13, 13, 11, 10, 10, 9, 9, 8, 7, 4, 4, 4, 3, 3, 3, 3, 2, 2, 26, 24, 22, 18, 16, 15, 13, 11, 9, 12, 11, 10, 8, 7, 6, 6, 5, 4, 25, 21, 19, 15, 13, 12, 7, 4, 1, 12, 12, 11, 10, 9, 8, 6, 5, 5, 7, 6, 6, 6, 5, 5, 5, 4, 4, 22, 21, 17, 16, 14, 12, 10, 7, 6, 19, 18, 15, 12, 12, 10, 9, 7, 4, 26, 26, 25, 24, 23, 21, 20, 19, 18, 13, 12, 10, 8, 8, 6, 6, 4, 3, 28, 24, 23, 19, 19, 17, 14, 11, 10|];